max: 20 X1 + 15 X2 + 25 X3 - 6 y1p + 6 y1m + 3 y2m - 1000 y2p;

20 X1 + 15 X2 + 25 X3 - 20 X1 - 15 X2 - 25 X3 + 6 y1p - 6 y1m - 3 y2m = 0;
6 X1 + 4 X2 + 5 X3 + y1m - y1p = 50;
8 X1 + 7 X2 + 5 X3 + y2m - y2p = 75;